outputs/case_123.model.txt
internal_control_system_established = True
internal_handling_system_established = True
aml_internal_control_system_executed = True
aml_audit_procedures_implemented = True
internal_operation_system_established = True
internal_handling_system_executed = True
aml_other_required_matters_complied = True
aml_dedicated_personnel_assigned = True
aml_internal_control_system_established = True
aml_risk_assessment_report_updated = True
aml_regular_training_held = True
aml_anti_money_laundering_procedures = True
internal_operation_system_executed = True
internal_control_system_executed = True
internal_operation_executed = True
aml_internal_control_executed = True
internal_handling_established = True
internal_operation_ok = True
internal_handling_ok = True
internal_control_executed = True
aml_internal_control_compliant = True
aml_internal_control_content_ok = True
penalty = False
internal_control_established = True
internal_handling_executed = True
internal_operation_established = True
aml_internal_control_established = True
internal_control_ok = True